; benchmark generated from python API
(set-info :status unknown)
(declare-fun x_epoch () Int)
(declare-fun y_epoch () Int)
(declare-fun x_plus_epoch () Int)
(declare-fun x_plus_month () Int)
(declare-fun x_plus_year () Int)
(declare-fun x_plus_day () Int)
(declare-fun y_plus_epoch () Int)
(declare-fun y_plus_month () Int)
(declare-fun y_plus_year () Int)
(declare-fun y_plus_day () Int)
(assert
 (>= x_epoch (- 36584)))
(assert
 (<= x_epoch 36829))
(assert
 (>= y_epoch (- 36584)))
(assert
 (<= y_epoch 36829))
(assert
 (= x_epoch 7275))
(assert
 (= y_epoch 6910))
(assert
 (>= x_plus_epoch (- 36584)))
(assert
 (<= x_plus_epoch 36829))
(assert
 (let (($x693 (= x_plus_month 11)))
 (let (($x713 (= x_plus_month 9)))
 (let (($x734 (= x_plus_month 6)))
 (let (($x787 (= x_plus_month 4)))
 (let ((?x538 (ite (or $x787 $x734 $x713 $x693) 30 31)))
 (let (($x917 (= (mod x_plus_year 400) 0)))
 (let (($x1206 (= (mod x_plus_year 4) 0)))
 (let (($x916 (or (and $x1206 (and (distinct (mod x_plus_year 100) 0) true)) $x917)))
 (let (($x309 (= x_plus_month 2)))
 (let (($x311 (>= x_plus_day 1)))
 (let (($x1018 (<= x_plus_month 12)))
 (let (($x919 (>= x_plus_month 1)))
 (let (($x1568 (<= x_plus_year 2100)))
 (let (($x830 (>= x_plus_year 1900)))
 (and $x830 $x1568 $x919 $x1018 $x311 (<= x_plus_day (ite $x309 (ite $x916 29 28) ?x538))))))))))))))))))
(assert
 (let (($x917 (= (mod x_plus_year 400) 0)))
 (let (($x1206 (= (mod x_plus_year 4) 0)))
 (let (($x916 (or (and $x1206 (and (distinct (mod x_plus_year 100) 0) true)) $x917)))
 (let ((?x977 (ite (= 2 x_plus_month) (ite $x916 31 31) (ite (= 1 x_plus_month) (ite $x916 0 0) 0))))
 (let ((?x828 (ite (= 4 x_plus_month) (ite $x916 91 90) (ite (= 3 x_plus_month) (ite $x916 60 59) ?x977))))
 (let ((?x1029 (ite (= 6 x_plus_month) (ite $x916 152 151) (ite (= 5 x_plus_month) (ite $x916 121 120) ?x828))))
 (let ((?x1412 (ite (= 8 x_plus_month) (ite $x916 213 212) (ite (= 7 x_plus_month) (ite $x916 182 181) ?x1029))))
 (let ((?x1137 (ite (= 10 x_plus_month) (ite $x916 274 273) (ite (= 9 x_plus_month) (ite $x916 244 243) ?x1412))))
 (let ((?x913 (ite (= 12 x_plus_month) (ite $x916 335 334) (ite (= 11 x_plus_month) (ite $x916 305 304) ?x1137))))
 (let ((?x1037 (+ (* 365 (- x_plus_year 1)) (div (- x_plus_year 1) 4))))
 (let ((?x1050 (+ (- ?x1037 (div (- x_plus_year 1) 100)) (div (- x_plus_year 1) 400))))
 (= x_plus_epoch (- (+ (+ ?x1050 ?x913) (- x_plus_day 1)) 730179))))))))))))))
(assert
 (let ((?x301 (+ x_epoch 730179)))
 (let ((?x682 (mod ?x301 146097)))
 (let ((?x605 (div ?x682 36524)))
 (let ((?x1366 (ite (<= 4 ?x605) 3 ?x605)))
 (let ((?x1092 (- ?x682 (* ?x1366 36524))))
 (let ((?x285 (mod ?x1092 1461)))
 (let ((?x1373 (div ?x285 365)))
 (let ((?x335 (ite (<= 4 ?x1373) 3 ?x1373)))
 (let ((?x750 (+ (+ (* (div ?x301 146097) 400) (* ?x1366 100)) (* (div ?x1092 1461) 4))))
 (let ((?x1278 (+ (+ ?x750 ?x335) 1)))
 (let (($x217 (or (and (= (mod ?x1278 4) 0) (and (distinct (mod ?x1278 100) 0) true)) (= (mod ?x1278 400) 0))))
 (let ((?x598 (- ?x285 (* ?x335 365))))
 (let ((?x1242 (ite $x217 31 31)))
 (let (($x1094 (>= ?x598 ?x1242)))
 (let ((?x1190 (ite $x1094 (+ (- ?x598 ?x1242) 1) (+ (- ?x598 (ite $x217 0 0)) 1))))
 (let ((?x620 (ite $x217 60 59)))
 (let (($x271 (>= ?x598 ?x620)))
 (let ((?x1332 (ite $x217 91 90)))
 (let (($x1089 (>= ?x598 ?x1332)))
 (let ((?x334 (ite $x1089 (+ (- ?x598 ?x1332) 1) (ite $x271 (+ (- ?x598 ?x620) 1) ?x1190))))
 (let ((?x1079 (ite $x217 121 120)))
 (let (($x336 (>= ?x598 ?x1079)))
 (let ((?x1330 (ite $x217 152 151)))
 (let (($x415 (>= ?x598 ?x1330)))
 (let ((?x1087 (ite $x415 (+ (- ?x598 ?x1330) 1) (ite $x336 (+ (- ?x598 ?x1079) 1) ?x334))))
 (let ((?x1170 (ite $x217 182 181)))
 (let (($x1246 (>= ?x598 ?x1170)))
 (let ((?x1214 (ite $x217 213 212)))
 (let (($x1198 (>= ?x598 ?x1214)))
 (let ((?x547 (ite $x1198 (+ (- ?x598 ?x1214) 1) (ite $x1246 (+ (- ?x598 ?x1170) 1) ?x1087))))
 (let ((?x1093 (ite $x217 244 243)))
 (let (($x333 (>= ?x598 ?x1093)))
 (let ((?x1194 (ite $x217 274 273)))
 (let (($x1162 (>= ?x598 ?x1194)))
 (let ((?x1371 (ite $x1162 (+ (- ?x598 ?x1194) 1) (ite $x333 (+ (- ?x598 ?x1093) 1) ?x547))))
 (let ((?x212 (ite $x217 305 304)))
 (let (($x1369 (>= ?x598 ?x212)))
 (let ((?x1238 (ite $x217 335 334)))
 (let (($x591 (>= ?x598 ?x1238)))
 (let ((?x210 (ite $x591 (+ (- ?x598 ?x1238) 1) (ite $x1369 (+ (- ?x598 ?x212) 1) ?x1371))))
 (let ((?x821 (+ (* 0 12) 1)))
 (let ((?x992 (ite $x336 5 (ite $x1089 4 (ite $x271 3 (ite $x1094 2 1))))))
 (let ((?x332 (ite $x333 9 (ite $x1198 8 (ite $x1246 7 (ite $x415 6 ?x992))))))
 (let ((?x1370 (ite $x591 12 (ite $x1369 11 (ite $x1162 10 ?x332)))))
 (let ((?x209 (+ ?x1370 ?x821)))
 (let ((?x773 (- ?x209 1)))
 (let ((?x608 (+ (mod ?x773 12) 1)))
 (let ((?x704 (ite (or (= ?x608 4) (= ?x608 6) (= ?x608 9) (= ?x608 11)) 30 31)))
 (let (($x602 (and (= (mod (+ ?x1278 (+ 0 (div ?x773 12))) 4) 0) (and (distinct (mod (+ ?x1278 (+ 0 (div ?x773 12))) 100) 0) true))))
 (let (($x1290 (or $x602 (= (mod (+ ?x1278 (+ 0 (div ?x773 12))) 400) 0))))
 (let ((?x686 (ite (= ?x608 2) (ite $x1290 29 28) ?x704)))
 (let ((?x754 (ite (> 1 ?x210) 1 (ite (> ?x210 ?x686) ?x686 ?x210))))
 (let ((?x684 (ite (> 1 ?x754) 1 (ite (> ?x754 ?x686) ?x686 ?x754))))
 (let ((?x587 (ite (= 2 ?x608) (ite $x1290 31 31) (ite (= 1 ?x608) (ite $x1290 0 0) 0))))
 (let ((?x657 (ite (= 4 ?x608) (ite $x1290 91 90) (ite (= 3 ?x608) (ite $x1290 60 59) ?x587))))
 (let ((?x658 (ite (= 6 ?x608) (ite $x1290 152 151) (ite (= 5 ?x608) (ite $x1290 121 120) ?x657))))
 (let ((?x619 (ite (= 8 ?x608) (ite $x1290 213 212) (ite (= 7 ?x608) (ite $x1290 182 181) ?x658))))
 (let ((?x1024 (ite (= 10 ?x608) (ite $x1290 274 273) (ite (= 9 ?x608) (ite $x1290 244 243) ?x619))))
 (let ((?x603 (ite (= 12 ?x608) (ite $x1290 335 334) (ite (= 11 ?x608) (ite $x1290 305 304) ?x1024))))
 (let ((?x222 (+ (* 365 (- (+ ?x1278 (+ 0 (div ?x773 12))) 1)) (div (- (+ ?x1278 (+ 0 (div ?x773 12))) 1) 4))))
 (let ((?x612 (+ (- ?x222 (div (- (+ ?x1278 (+ 0 (div ?x773 12))) 1) 100)) (div (- (+ ?x1278 (+ 0 (div ?x773 12))) 1) 400))))
 (let ((?x663 (+ (+ (- (+ (+ ?x612 ?x603) (- ?x684 1)) 730179) 0) 730179)))
 (let ((?x915 (mod ?x663 146097)))
 (let ((?x1367 (div ?x915 36524)))
 (let ((?x564 (ite (<= 4 ?x1367) 3 ?x1367)))
 (let ((?x254 (- ?x915 (* ?x564 36524))))
 (let ((?x218 (mod ?x254 1461)))
 (let ((?x794 (div ?x218 365)))
 (let ((?x208 (ite (<= 4 ?x794) 3 ?x794)))
 (let ((?x1072 (+ (+ (* (div ?x663 146097) 400) (* ?x564 100)) (* (div ?x254 1461) 4))))
 (let ((?x318 (+ (+ ?x1072 ?x208) 1)))
 (let ((?x696 (+ 0 (div ?x773 12))))
 (let ((?x983 (+ ?x1278 ?x696)))
 (let (($x1067 (= 0 0)))
 (let ((?x294 (ite $x1067 ?x983 ?x318)))
 (= x_plus_year ?x294)))))))))))))))))))))))))))))))))))))))))))))))))))))))))))))))))))))))))))))
(assert
 (let ((?x301 (+ x_epoch 730179)))
 (let ((?x682 (mod ?x301 146097)))
 (let ((?x605 (div ?x682 36524)))
 (let ((?x1366 (ite (<= 4 ?x605) 3 ?x605)))
 (let ((?x1092 (- ?x682 (* ?x1366 36524))))
 (let ((?x285 (mod ?x1092 1461)))
 (let ((?x1373 (div ?x285 365)))
 (let ((?x335 (ite (<= 4 ?x1373) 3 ?x1373)))
 (let ((?x750 (+ (+ (* (div ?x301 146097) 400) (* ?x1366 100)) (* (div ?x1092 1461) 4))))
 (let ((?x1278 (+ (+ ?x750 ?x335) 1)))
 (let (($x217 (or (and (= (mod ?x1278 4) 0) (and (distinct (mod ?x1278 100) 0) true)) (= (mod ?x1278 400) 0))))
 (let ((?x598 (- ?x285 (* ?x335 365))))
 (let ((?x1242 (ite $x217 31 31)))
 (let (($x1094 (>= ?x598 ?x1242)))
 (let ((?x1190 (ite $x1094 (+ (- ?x598 ?x1242) 1) (+ (- ?x598 (ite $x217 0 0)) 1))))
 (let ((?x620 (ite $x217 60 59)))
 (let (($x271 (>= ?x598 ?x620)))
 (let ((?x1332 (ite $x217 91 90)))
 (let (($x1089 (>= ?x598 ?x1332)))
 (let ((?x334 (ite $x1089 (+ (- ?x598 ?x1332) 1) (ite $x271 (+ (- ?x598 ?x620) 1) ?x1190))))
 (let ((?x1079 (ite $x217 121 120)))
 (let (($x336 (>= ?x598 ?x1079)))
 (let ((?x1330 (ite $x217 152 151)))
 (let (($x415 (>= ?x598 ?x1330)))
 (let ((?x1087 (ite $x415 (+ (- ?x598 ?x1330) 1) (ite $x336 (+ (- ?x598 ?x1079) 1) ?x334))))
 (let ((?x1170 (ite $x217 182 181)))
 (let (($x1246 (>= ?x598 ?x1170)))
 (let ((?x1214 (ite $x217 213 212)))
 (let (($x1198 (>= ?x598 ?x1214)))
 (let ((?x547 (ite $x1198 (+ (- ?x598 ?x1214) 1) (ite $x1246 (+ (- ?x598 ?x1170) 1) ?x1087))))
 (let ((?x1093 (ite $x217 244 243)))
 (let (($x333 (>= ?x598 ?x1093)))
 (let ((?x1194 (ite $x217 274 273)))
 (let (($x1162 (>= ?x598 ?x1194)))
 (let ((?x1371 (ite $x1162 (+ (- ?x598 ?x1194) 1) (ite $x333 (+ (- ?x598 ?x1093) 1) ?x547))))
 (let ((?x212 (ite $x217 305 304)))
 (let (($x1369 (>= ?x598 ?x212)))
 (let ((?x1238 (ite $x217 335 334)))
 (let (($x591 (>= ?x598 ?x1238)))
 (let ((?x210 (ite $x591 (+ (- ?x598 ?x1238) 1) (ite $x1369 (+ (- ?x598 ?x212) 1) ?x1371))))
 (let ((?x821 (+ (* 0 12) 1)))
 (let ((?x992 (ite $x336 5 (ite $x1089 4 (ite $x271 3 (ite $x1094 2 1))))))
 (let ((?x332 (ite $x333 9 (ite $x1198 8 (ite $x1246 7 (ite $x415 6 ?x992))))))
 (let ((?x1370 (ite $x591 12 (ite $x1369 11 (ite $x1162 10 ?x332)))))
 (let ((?x209 (+ ?x1370 ?x821)))
 (let ((?x773 (- ?x209 1)))
 (let ((?x608 (+ (mod ?x773 12) 1)))
 (let ((?x704 (ite (or (= ?x608 4) (= ?x608 6) (= ?x608 9) (= ?x608 11)) 30 31)))
 (let (($x602 (and (= (mod (+ ?x1278 (+ 0 (div ?x773 12))) 4) 0) (and (distinct (mod (+ ?x1278 (+ 0 (div ?x773 12))) 100) 0) true))))
 (let (($x1290 (or $x602 (= (mod (+ ?x1278 (+ 0 (div ?x773 12))) 400) 0))))
 (let ((?x686 (ite (= ?x608 2) (ite $x1290 29 28) ?x704)))
 (let ((?x754 (ite (> 1 ?x210) 1 (ite (> ?x210 ?x686) ?x686 ?x210))))
 (let ((?x684 (ite (> 1 ?x754) 1 (ite (> ?x754 ?x686) ?x686 ?x754))))
 (let ((?x587 (ite (= 2 ?x608) (ite $x1290 31 31) (ite (= 1 ?x608) (ite $x1290 0 0) 0))))
 (let ((?x657 (ite (= 4 ?x608) (ite $x1290 91 90) (ite (= 3 ?x608) (ite $x1290 60 59) ?x587))))
 (let ((?x658 (ite (= 6 ?x608) (ite $x1290 152 151) (ite (= 5 ?x608) (ite $x1290 121 120) ?x657))))
 (let ((?x619 (ite (= 8 ?x608) (ite $x1290 213 212) (ite (= 7 ?x608) (ite $x1290 182 181) ?x658))))
 (let ((?x1024 (ite (= 10 ?x608) (ite $x1290 274 273) (ite (= 9 ?x608) (ite $x1290 244 243) ?x619))))
 (let ((?x603 (ite (= 12 ?x608) (ite $x1290 335 334) (ite (= 11 ?x608) (ite $x1290 305 304) ?x1024))))
 (let ((?x222 (+ (* 365 (- (+ ?x1278 (+ 0 (div ?x773 12))) 1)) (div (- (+ ?x1278 (+ 0 (div ?x773 12))) 1) 4))))
 (let ((?x612 (+ (- ?x222 (div (- (+ ?x1278 (+ 0 (div ?x773 12))) 1) 100)) (div (- (+ ?x1278 (+ 0 (div ?x773 12))) 1) 400))))
 (let ((?x663 (+ (+ (- (+ (+ ?x612 ?x603) (- ?x684 1)) 730179) 0) 730179)))
 (let ((?x915 (mod ?x663 146097)))
 (let ((?x1367 (div ?x915 36524)))
 (let ((?x564 (ite (<= 4 ?x1367) 3 ?x1367)))
 (let ((?x254 (- ?x915 (* ?x564 36524))))
 (let ((?x218 (mod ?x254 1461)))
 (let ((?x794 (div ?x218 365)))
 (let ((?x208 (ite (<= 4 ?x794) 3 ?x794)))
 (let ((?x1072 (+ (+ (* (div ?x663 146097) 400) (* ?x564 100)) (* (div ?x254 1461) 4))))
 (let ((?x318 (+ (+ ?x1072 ?x208) 1)))
 (let (($x737 (or (and (= (mod ?x318 4) 0) (and (distinct (mod ?x318 100) 0) true)) (= (mod ?x318 400) 0))))
 (let ((?x761 (ite $x737 31 31)))
 (let ((?x215 (- ?x218 (* ?x208 365))))
 (let (($x714 (>= ?x215 ?x761)))
 (let ((?x1234 (ite $x737 60 59)))
 (let (($x550 (>= ?x215 ?x1234)))
 (let ((?x290 (ite $x737 91 90)))
 (let (($x738 (>= ?x215 ?x290)))
 (let ((?x785 (ite $x737 121 120)))
 (let (($x758 (>= ?x215 ?x785)))
 (let ((?x1053 (ite $x758 5 (ite $x738 4 (ite $x550 3 (ite $x714 2 1))))))
 (let ((?x725 (ite $x737 152 151)))
 (let (($x718 (>= ?x215 ?x725)))
 (let ((?x711 (ite $x737 182 181)))
 (let (($x744 (>= ?x215 ?x711)))
 (let ((?x724 (ite $x737 213 212)))
 (let (($x546 (>= ?x215 ?x724)))
 (let ((?x985 (ite $x737 244 243)))
 (let (($x741 (>= ?x215 ?x985)))
 (let ((?x1011 (ite $x741 9 (ite $x546 8 (ite $x744 7 (ite $x718 6 ?x1053))))))
 (let ((?x1062 (ite $x737 274 273)))
 (let (($x1023 (>= ?x215 ?x1062)))
 (let ((?x1061 (ite $x737 305 304)))
 (let (($x678 (>= ?x215 ?x1061)))
 (let ((?x262 (ite $x737 335 334)))
 (let (($x800 (>= ?x215 ?x262)))
 (let (($x1067 (= 0 0)))
 (let ((?x681 (ite $x1067 ?x608 (ite $x800 12 (ite $x678 11 (ite $x1023 10 ?x1011))))))
 (= x_plus_month ?x681)))))))))))))))))))))))))))))))))))))))))))))))))))))))))))))))))))))))))))))))))))))))))))))))))))))
(assert
 (let ((?x301 (+ x_epoch 730179)))
 (let ((?x682 (mod ?x301 146097)))
 (let ((?x605 (div ?x682 36524)))
 (let ((?x1366 (ite (<= 4 ?x605) 3 ?x605)))
 (let ((?x1092 (- ?x682 (* ?x1366 36524))))
 (let ((?x285 (mod ?x1092 1461)))
 (let ((?x1373 (div ?x285 365)))
 (let ((?x335 (ite (<= 4 ?x1373) 3 ?x1373)))
 (let ((?x750 (+ (+ (* (div ?x301 146097) 400) (* ?x1366 100)) (* (div ?x1092 1461) 4))))
 (let ((?x1278 (+ (+ ?x750 ?x335) 1)))
 (let (($x217 (or (and (= (mod ?x1278 4) 0) (and (distinct (mod ?x1278 100) 0) true)) (= (mod ?x1278 400) 0))))
 (let ((?x598 (- ?x285 (* ?x335 365))))
 (let ((?x1242 (ite $x217 31 31)))
 (let (($x1094 (>= ?x598 ?x1242)))
 (let ((?x1190 (ite $x1094 (+ (- ?x598 ?x1242) 1) (+ (- ?x598 (ite $x217 0 0)) 1))))
 (let ((?x620 (ite $x217 60 59)))
 (let (($x271 (>= ?x598 ?x620)))
 (let ((?x1332 (ite $x217 91 90)))
 (let (($x1089 (>= ?x598 ?x1332)))
 (let ((?x334 (ite $x1089 (+ (- ?x598 ?x1332) 1) (ite $x271 (+ (- ?x598 ?x620) 1) ?x1190))))
 (let ((?x1079 (ite $x217 121 120)))
 (let (($x336 (>= ?x598 ?x1079)))
 (let ((?x1330 (ite $x217 152 151)))
 (let (($x415 (>= ?x598 ?x1330)))
 (let ((?x1087 (ite $x415 (+ (- ?x598 ?x1330) 1) (ite $x336 (+ (- ?x598 ?x1079) 1) ?x334))))
 (let ((?x1170 (ite $x217 182 181)))
 (let (($x1246 (>= ?x598 ?x1170)))
 (let ((?x1214 (ite $x217 213 212)))
 (let (($x1198 (>= ?x598 ?x1214)))
 (let ((?x547 (ite $x1198 (+ (- ?x598 ?x1214) 1) (ite $x1246 (+ (- ?x598 ?x1170) 1) ?x1087))))
 (let ((?x1093 (ite $x217 244 243)))
 (let (($x333 (>= ?x598 ?x1093)))
 (let ((?x1194 (ite $x217 274 273)))
 (let (($x1162 (>= ?x598 ?x1194)))
 (let ((?x1371 (ite $x1162 (+ (- ?x598 ?x1194) 1) (ite $x333 (+ (- ?x598 ?x1093) 1) ?x547))))
 (let ((?x212 (ite $x217 305 304)))
 (let (($x1369 (>= ?x598 ?x212)))
 (let ((?x1238 (ite $x217 335 334)))
 (let (($x591 (>= ?x598 ?x1238)))
 (let ((?x210 (ite $x591 (+ (- ?x598 ?x1238) 1) (ite $x1369 (+ (- ?x598 ?x212) 1) ?x1371))))
 (let ((?x821 (+ (* 0 12) 1)))
 (let ((?x992 (ite $x336 5 (ite $x1089 4 (ite $x271 3 (ite $x1094 2 1))))))
 (let ((?x332 (ite $x333 9 (ite $x1198 8 (ite $x1246 7 (ite $x415 6 ?x992))))))
 (let ((?x1370 (ite $x591 12 (ite $x1369 11 (ite $x1162 10 ?x332)))))
 (let ((?x209 (+ ?x1370 ?x821)))
 (let ((?x773 (- ?x209 1)))
 (let ((?x608 (+ (mod ?x773 12) 1)))
 (let ((?x704 (ite (or (= ?x608 4) (= ?x608 6) (= ?x608 9) (= ?x608 11)) 30 31)))
 (let (($x602 (and (= (mod (+ ?x1278 (+ 0 (div ?x773 12))) 4) 0) (and (distinct (mod (+ ?x1278 (+ 0 (div ?x773 12))) 100) 0) true))))
 (let (($x1290 (or $x602 (= (mod (+ ?x1278 (+ 0 (div ?x773 12))) 400) 0))))
 (let ((?x686 (ite (= ?x608 2) (ite $x1290 29 28) ?x704)))
 (let ((?x754 (ite (> 1 ?x210) 1 (ite (> ?x210 ?x686) ?x686 ?x210))))
 (let ((?x684 (ite (> 1 ?x754) 1 (ite (> ?x754 ?x686) ?x686 ?x754))))
 (let ((?x587 (ite (= 2 ?x608) (ite $x1290 31 31) (ite (= 1 ?x608) (ite $x1290 0 0) 0))))
 (let ((?x657 (ite (= 4 ?x608) (ite $x1290 91 90) (ite (= 3 ?x608) (ite $x1290 60 59) ?x587))))
 (let ((?x658 (ite (= 6 ?x608) (ite $x1290 152 151) (ite (= 5 ?x608) (ite $x1290 121 120) ?x657))))
 (let ((?x619 (ite (= 8 ?x608) (ite $x1290 213 212) (ite (= 7 ?x608) (ite $x1290 182 181) ?x658))))
 (let ((?x1024 (ite (= 10 ?x608) (ite $x1290 274 273) (ite (= 9 ?x608) (ite $x1290 244 243) ?x619))))
 (let ((?x603 (ite (= 12 ?x608) (ite $x1290 335 334) (ite (= 11 ?x608) (ite $x1290 305 304) ?x1024))))
 (let ((?x222 (+ (* 365 (- (+ ?x1278 (+ 0 (div ?x773 12))) 1)) (div (- (+ ?x1278 (+ 0 (div ?x773 12))) 1) 4))))
 (let ((?x612 (+ (- ?x222 (div (- (+ ?x1278 (+ 0 (div ?x773 12))) 1) 100)) (div (- (+ ?x1278 (+ 0 (div ?x773 12))) 1) 400))))
 (let ((?x663 (+ (+ (- (+ (+ ?x612 ?x603) (- ?x684 1)) 730179) 0) 730179)))
 (let ((?x915 (mod ?x663 146097)))
 (let ((?x1367 (div ?x915 36524)))
 (let ((?x564 (ite (<= 4 ?x1367) 3 ?x1367)))
 (let ((?x254 (- ?x915 (* ?x564 36524))))
 (let ((?x218 (mod ?x254 1461)))
 (let ((?x794 (div ?x218 365)))
 (let ((?x208 (ite (<= 4 ?x794) 3 ?x794)))
 (let ((?x1072 (+ (+ (* (div ?x663 146097) 400) (* ?x564 100)) (* (div ?x254 1461) 4))))
 (let ((?x318 (+ (+ ?x1072 ?x208) 1)))
 (let (($x737 (or (and (= (mod ?x318 4) 0) (and (distinct (mod ?x318 100) 0) true)) (= (mod ?x318 400) 0))))
 (let ((?x215 (- ?x218 (* ?x208 365))))
 (let ((?x761 (ite $x737 31 31)))
 (let (($x714 (>= ?x215 ?x761)))
 (let ((?x694 (ite $x714 (+ (- ?x215 ?x761) 1) (+ (- ?x215 (ite $x737 0 0)) 1))))
 (let ((?x1234 (ite $x737 60 59)))
 (let (($x550 (>= ?x215 ?x1234)))
 (let ((?x290 (ite $x737 91 90)))
 (let (($x738 (>= ?x215 ?x290)))
 (let ((?x1073 (ite $x738 (+ (- ?x215 ?x290) 1) (ite $x550 (+ (- ?x215 ?x1234) 1) ?x694))))
 (let ((?x785 (ite $x737 121 120)))
 (let (($x758 (>= ?x215 ?x785)))
 (let ((?x725 (ite $x737 152 151)))
 (let (($x718 (>= ?x215 ?x725)))
 (let ((?x798 (ite $x718 (+ (- ?x215 ?x725) 1) (ite $x758 (+ (- ?x215 ?x785) 1) ?x1073))))
 (let ((?x711 (ite $x737 182 181)))
 (let (($x744 (>= ?x215 ?x711)))
 (let ((?x724 (ite $x737 213 212)))
 (let (($x546 (>= ?x215 ?x724)))
 (let ((?x291 (ite $x546 (+ (- ?x215 ?x724) 1) (ite $x744 (+ (- ?x215 ?x711) 1) ?x798))))
 (let ((?x985 (ite $x737 244 243)))
 (let (($x741 (>= ?x215 ?x985)))
 (let ((?x1062 (ite $x737 274 273)))
 (let (($x1023 (>= ?x215 ?x1062)))
 (let ((?x669 (ite $x1023 (+ (- ?x215 ?x1062) 1) (ite $x741 (+ (- ?x215 ?x985) 1) ?x291))))
 (let ((?x1061 (ite $x737 305 304)))
 (let (($x678 (>= ?x215 ?x1061)))
 (let ((?x262 (ite $x737 335 334)))
 (let (($x800 (>= ?x215 ?x262)))
 (let ((?x305 (ite $x800 (+ (- ?x215 ?x262) 1) (ite $x678 (+ (- ?x215 ?x1061) 1) ?x669))))
 (let (($x1067 (= 0 0)))
 (let ((?x665 (ite $x1067 ?x684 ?x305)))
 (= x_plus_day ?x665)))))))))))))))))))))))))))))))))))))))))))))))))))))))))))))))))))))))))))))))))))))))))))))))))))))))))
(assert
 (= x_plus_epoch 7304))
(assert
 (>= y_plus_epoch (- 36584)))
(assert
 (<= y_plus_epoch 36829))
(assert
 (let (($x784 (= y_plus_month 11)))
 (let (($x3057 (= y_plus_month 9)))
 (let (($x2861 (= y_plus_month 6)))
 (let (($x1504 (= y_plus_month 4)))
 (let ((?x2839 (ite (or $x1504 $x2861 $x3057 $x784) 30 31)))
 (let (($x2581 (= (mod y_plus_year 400) 0)))
 (let (($x2375 (= (mod y_plus_year 4) 0)))
 (let (($x341 (or (and $x2375 (and (distinct (mod y_plus_year 100) 0) true)) $x2581)))
 (let (($x1110 (= y_plus_month 2)))
 (let (($x2877 (>= y_plus_day 1)))
 (let (($x2550 (<= y_plus_month 12)))
 (let (($x401 (>= y_plus_month 1)))
 (let (($x1759 (<= y_plus_year 2100)))
 (let (($x2079 (>= y_plus_year 1900)))
 (and $x2079 $x1759 $x401 $x2550 $x2877 (<= y_plus_day (ite $x1110 (ite $x341 29 28) ?x2839))))))))))))))))))
(assert
 (let (($x2581 (= (mod y_plus_year 400) 0)))
 (let (($x2375 (= (mod y_plus_year 4) 0)))
 (let (($x341 (or (and $x2375 (and (distinct (mod y_plus_year 100) 0) true)) $x2581)))
 (let ((?x1378 (ite (= 2 y_plus_month) (ite $x341 31 31) (ite (= 1 y_plus_month) (ite $x341 0 0) 0))))
 (let ((?x2865 (ite (= 4 y_plus_month) (ite $x341 91 90) (ite (= 3 y_plus_month) (ite $x341 60 59) ?x1378))))
 (let ((?x2796 (ite (= 6 y_plus_month) (ite $x341 152 151) (ite (= 5 y_plus_month) (ite $x341 121 120) ?x2865))))
 (let ((?x2466 (ite (= 8 y_plus_month) (ite $x341 213 212) (ite (= 7 y_plus_month) (ite $x341 182 181) ?x2796))))
 (let ((?x2826 (ite (= 10 y_plus_month) (ite $x341 274 273) (ite (= 9 y_plus_month) (ite $x341 244 243) ?x2466))))
 (let ((?x2036 (ite (= 12 y_plus_month) (ite $x341 335 334) (ite (= 11 y_plus_month) (ite $x341 305 304) ?x2826))))
 (let ((?x2831 (+ (* 365 (- y_plus_year 1)) (div (- y_plus_year 1) 4))))
 (let ((?x2968 (+ (- ?x2831 (div (- y_plus_year 1) 100)) (div (- y_plus_year 1) 400))))
 (= y_plus_epoch (- (+ (+ ?x2968 ?x2036) (- y_plus_day 1)) 730179))))))))))))))
(assert
 (let ((?x2251 (+ y_epoch 730179)))
 (let ((?x1816 (mod ?x2251 146097)))
 (let ((?x2894 (div ?x1816 36524)))
 (let ((?x1985 (ite (<= 4 ?x2894) 3 ?x2894)))
 (let ((?x618 (- ?x1816 (* ?x1985 36524))))
 (let ((?x345 (mod ?x618 1461)))
 (let ((?x1691 (div ?x345 365)))
 (let ((?x2488 (ite (<= 4 ?x1691) 3 ?x1691)))
 (let ((?x3673 (+ (+ (* (div ?x2251 146097) 400) (* ?x1985 100)) (* (div ?x618 1461) 4))))
 (let ((?x943 (+ (+ ?x3673 ?x2488) 1)))
 (let (($x1279 (or (and (= (mod ?x943 4) 0) (and (distinct (mod ?x943 100) 0) true)) (= (mod ?x943 400) 0))))
 (let ((?x2268 (- ?x345 (* ?x2488 365))))
 (let ((?x4027 (ite $x1279 31 31)))
 (let (($x4505 (>= ?x2268 ?x4027)))
 (let ((?x1822 (ite $x4505 (+ (- ?x2268 ?x4027) 1) (+ (- ?x2268 (ite $x1279 0 0)) 1))))
 (let ((?x4431 (ite $x1279 60 59)))
 (let (($x865 (>= ?x2268 ?x4431)))
 (let ((?x3479 (ite $x1279 91 90)))
 (let (($x3473 (>= ?x2268 ?x3479)))
 (let ((?x2682 (ite $x3473 (+ (- ?x2268 ?x3479) 1) (ite $x865 (+ (- ?x2268 ?x4431) 1) ?x1822))))
 (let ((?x3498 (ite $x1279 121 120)))
 (let (($x3484 (>= ?x2268 ?x3498)))
 (let ((?x4033 (ite $x1279 152 151)))
 (let (($x2166 (>= ?x2268 ?x4033)))
 (let ((?x2462 (ite $x2166 (+ (- ?x2268 ?x4033) 1) (ite $x3484 (+ (- ?x2268 ?x3498) 1) ?x2682))))
 (let ((?x340 (ite $x1279 182 181)))
 (let (($x4006 (>= ?x2268 ?x340)))
 (let ((?x2359 (ite $x1279 213 212)))
 (let (($x4008 (>= ?x2268 ?x2359)))
 (let ((?x4474 (ite $x4008 (+ (- ?x2268 ?x2359) 1) (ite $x4006 (+ (- ?x2268 ?x340) 1) ?x2462))))
 (let ((?x2361 (ite $x1279 244 243)))
 (let (($x3471 (>= ?x2268 ?x2361)))
 (let ((?x394 (ite $x1279 274 273)))
 (let (($x2056 (>= ?x2268 ?x394)))
 (let ((?x3459 (ite $x2056 (+ (- ?x2268 ?x394) 1) (ite $x3471 (+ (- ?x2268 ?x2361) 1) ?x4474))))
 (let ((?x4473 (ite $x1279 305 304)))
 (let (($x4478 (>= ?x2268 ?x4473)))
 (let ((?x4058 (ite $x1279 335 334)))
 (let (($x4571 (>= ?x2268 ?x4058)))
 (let ((?x4824 (ite $x4571 (+ (- ?x2268 ?x4058) 1) (ite $x4478 (+ (- ?x2268 ?x4473) 1) ?x3459))))
 (let ((?x821 (+ (* 0 12) 1)))
 (let ((?x3469 (ite $x3484 5 (ite $x3473 4 (ite $x865 3 (ite $x4505 2 1))))))
 (let ((?x4064 (ite $x3471 9 (ite $x4008 8 (ite $x4006 7 (ite $x2166 6 ?x3469))))))
 (let ((?x3497 (ite $x4571 12 (ite $x4478 11 (ite $x2056 10 ?x4064)))))
 (let ((?x3598 (+ ?x3497 ?x821)))
 (let ((?x492 (- ?x3598 1)))
 (let ((?x3400 (+ (mod ?x492 12) 1)))
 (let ((?x3466 (ite (or (= ?x3400 4) (= ?x3400 6) (= ?x3400 9) (= ?x3400 11)) 30 31)))
 (let (($x3777 (and (= (mod (+ ?x943 (+ 0 (div ?x492 12))) 4) 0) (and (distinct (mod (+ ?x943 (+ 0 (div ?x492 12))) 100) 0) true))))
 (let (($x4085 (or $x3777 (= (mod (+ ?x943 (+ 0 (div ?x492 12))) 400) 0))))
 (let ((?x4241 (ite (= ?x3400 2) (ite $x4085 29 28) ?x3466)))
 (let ((?x1477 (ite (> 1 ?x4824) 1 (ite (> ?x4824 ?x4241) ?x4241 ?x4824))))
 (let ((?x3650 (ite (> 1 ?x1477) 1 (ite (> ?x1477 ?x4241) ?x4241 ?x1477))))
 (let ((?x2221 (ite (= 2 ?x3400) (ite $x4085 31 31) (ite (= 1 ?x3400) (ite $x4085 0 0) 0))))
 (let ((?x3770 (ite (= 4 ?x3400) (ite $x4085 91 90) (ite (= 3 ?x3400) (ite $x4085 60 59) ?x2221))))
 (let ((?x3123 (ite (= 6 ?x3400) (ite $x4085 152 151) (ite (= 5 ?x3400) (ite $x4085 121 120) ?x3770))))
 (let ((?x4218 (ite (= 8 ?x3400) (ite $x4085 213 212) (ite (= 7 ?x3400) (ite $x4085 182 181) ?x3123))))
 (let ((?x4545 (ite (= 10 ?x3400) (ite $x4085 274 273) (ite (= 9 ?x3400) (ite $x4085 244 243) ?x4218))))
 (let ((?x2007 (ite (= 12 ?x3400) (ite $x4085 335 334) (ite (= 11 ?x3400) (ite $x4085 305 304) ?x4545))))
 (let ((?x1109 (+ (* 365 (- (+ ?x943 (+ 0 (div ?x492 12))) 1)) (div (- (+ ?x943 (+ 0 (div ?x492 12))) 1) 4))))
 (let ((?x1537 (+ (- ?x1109 (div (- (+ ?x943 (+ 0 (div ?x492 12))) 1) 100)) (div (- (+ ?x943 (+ 0 (div ?x492 12))) 1) 400))))
 (let ((?x3907 (+ (+ (- (+ (+ ?x1537 ?x2007) (- ?x3650 1)) 730179) 0) 730179)))
 (let ((?x1556 (mod ?x3907 146097)))
 (let ((?x3853 (div ?x1556 36524)))
 (let ((?x1939 (ite (<= 4 ?x3853) 3 ?x3853)))
 (let ((?x443 (- ?x1556 (* ?x1939 36524))))
 (let ((?x1616 (mod ?x443 1461)))
 (let ((?x3467 (div ?x1616 365)))
 (let ((?x1464 (ite (<= 4 ?x3467) 3 ?x3467)))
 (let ((?x1642 (+ (+ (* (div ?x3907 146097) 400) (* ?x1939 100)) (* (div ?x443 1461) 4))))
 (let ((?x2795 (+ (+ ?x1642 ?x1464) 1)))
 (let ((?x2613 (+ 0 (div ?x492 12))))
 (let ((?x4518 (+ ?x943 ?x2613)))
 (let (($x1067 (= 0 0)))
 (let ((?x2729 (ite $x1067 ?x4518 ?x2795)))
 (= y_plus_year ?x2729)))))))))))))))))))))))))))))))))))))))))))))))))))))))))))))))))))))))))))))
(assert
 (let ((?x2251 (+ y_epoch 730179)))
 (let ((?x1816 (mod ?x2251 146097)))
 (let ((?x2894 (div ?x1816 36524)))
 (let ((?x1985 (ite (<= 4 ?x2894) 3 ?x2894)))
 (let ((?x618 (- ?x1816 (* ?x1985 36524))))
 (let ((?x345 (mod ?x618 1461)))
 (let ((?x1691 (div ?x345 365)))
 (let ((?x2488 (ite (<= 4 ?x1691) 3 ?x1691)))
 (let ((?x3673 (+ (+ (* (div ?x2251 146097) 400) (* ?x1985 100)) (* (div ?x618 1461) 4))))
 (let ((?x943 (+ (+ ?x3673 ?x2488) 1)))
 (let (($x1279 (or (and (= (mod ?x943 4) 0) (and (distinct (mod ?x943 100) 0) true)) (= (mod ?x943 400) 0))))
 (let ((?x2268 (- ?x345 (* ?x2488 365))))
 (let ((?x4027 (ite $x1279 31 31)))
 (let (($x4505 (>= ?x2268 ?x4027)))
 (let ((?x1822 (ite $x4505 (+ (- ?x2268 ?x4027) 1) (+ (- ?x2268 (ite $x1279 0 0)) 1))))
 (let ((?x4431 (ite $x1279 60 59)))
 (let (($x865 (>= ?x2268 ?x4431)))
 (let ((?x3479 (ite $x1279 91 90)))
 (let (($x3473 (>= ?x2268 ?x3479)))
 (let ((?x2682 (ite $x3473 (+ (- ?x2268 ?x3479) 1) (ite $x865 (+ (- ?x2268 ?x4431) 1) ?x1822))))
 (let ((?x3498 (ite $x1279 121 120)))
 (let (($x3484 (>= ?x2268 ?x3498)))
 (let ((?x4033 (ite $x1279 152 151)))
 (let (($x2166 (>= ?x2268 ?x4033)))
 (let ((?x2462 (ite $x2166 (+ (- ?x2268 ?x4033) 1) (ite $x3484 (+ (- ?x2268 ?x3498) 1) ?x2682))))
 (let ((?x340 (ite $x1279 182 181)))
 (let (($x4006 (>= ?x2268 ?x340)))
 (let ((?x2359 (ite $x1279 213 212)))
 (let (($x4008 (>= ?x2268 ?x2359)))
 (let ((?x4474 (ite $x4008 (+ (- ?x2268 ?x2359) 1) (ite $x4006 (+ (- ?x2268 ?x340) 1) ?x2462))))
 (let ((?x2361 (ite $x1279 244 243)))
 (let (($x3471 (>= ?x2268 ?x2361)))
 (let ((?x394 (ite $x1279 274 273)))
 (let (($x2056 (>= ?x2268 ?x394)))
 (let ((?x3459 (ite $x2056 (+ (- ?x2268 ?x394) 1) (ite $x3471 (+ (- ?x2268 ?x2361) 1) ?x4474))))
 (let ((?x4473 (ite $x1279 305 304)))
 (let (($x4478 (>= ?x2268 ?x4473)))
 (let ((?x4058 (ite $x1279 335 334)))
 (let (($x4571 (>= ?x2268 ?x4058)))
 (let ((?x4824 (ite $x4571 (+ (- ?x2268 ?x4058) 1) (ite $x4478 (+ (- ?x2268 ?x4473) 1) ?x3459))))
 (let ((?x821 (+ (* 0 12) 1)))
 (let ((?x3469 (ite $x3484 5 (ite $x3473 4 (ite $x865 3 (ite $x4505 2 1))))))
 (let ((?x4064 (ite $x3471 9 (ite $x4008 8 (ite $x4006 7 (ite $x2166 6 ?x3469))))))
 (let ((?x3497 (ite $x4571 12 (ite $x4478 11 (ite $x2056 10 ?x4064)))))
 (let ((?x3598 (+ ?x3497 ?x821)))
 (let ((?x492 (- ?x3598 1)))
 (let ((?x3400 (+ (mod ?x492 12) 1)))
 (let ((?x3466 (ite (or (= ?x3400 4) (= ?x3400 6) (= ?x3400 9) (= ?x3400 11)) 30 31)))
 (let (($x3777 (and (= (mod (+ ?x943 (+ 0 (div ?x492 12))) 4) 0) (and (distinct (mod (+ ?x943 (+ 0 (div ?x492 12))) 100) 0) true))))
 (let (($x4085 (or $x3777 (= (mod (+ ?x943 (+ 0 (div ?x492 12))) 400) 0))))
 (let ((?x4241 (ite (= ?x3400 2) (ite $x4085 29 28) ?x3466)))
 (let ((?x1477 (ite (> 1 ?x4824) 1 (ite (> ?x4824 ?x4241) ?x4241 ?x4824))))
 (let ((?x3650 (ite (> 1 ?x1477) 1 (ite (> ?x1477 ?x4241) ?x4241 ?x1477))))
 (let ((?x2221 (ite (= 2 ?x3400) (ite $x4085 31 31) (ite (= 1 ?x3400) (ite $x4085 0 0) 0))))
 (let ((?x3770 (ite (= 4 ?x3400) (ite $x4085 91 90) (ite (= 3 ?x3400) (ite $x4085 60 59) ?x2221))))
 (let ((?x3123 (ite (= 6 ?x3400) (ite $x4085 152 151) (ite (= 5 ?x3400) (ite $x4085 121 120) ?x3770))))
 (let ((?x4218 (ite (= 8 ?x3400) (ite $x4085 213 212) (ite (= 7 ?x3400) (ite $x4085 182 181) ?x3123))))
 (let ((?x4545 (ite (= 10 ?x3400) (ite $x4085 274 273) (ite (= 9 ?x3400) (ite $x4085 244 243) ?x4218))))
 (let ((?x2007 (ite (= 12 ?x3400) (ite $x4085 335 334) (ite (= 11 ?x3400) (ite $x4085 305 304) ?x4545))))
 (let ((?x1109 (+ (* 365 (- (+ ?x943 (+ 0 (div ?x492 12))) 1)) (div (- (+ ?x943 (+ 0 (div ?x492 12))) 1) 4))))
 (let ((?x1537 (+ (- ?x1109 (div (- (+ ?x943 (+ 0 (div ?x492 12))) 1) 100)) (div (- (+ ?x943 (+ 0 (div ?x492 12))) 1) 400))))
 (let ((?x3907 (+ (+ (- (+ (+ ?x1537 ?x2007) (- ?x3650 1)) 730179) 0) 730179)))
 (let ((?x1556 (mod ?x3907 146097)))
 (let ((?x3853 (div ?x1556 36524)))
 (let ((?x1939 (ite (<= 4 ?x3853) 3 ?x3853)))
 (let ((?x443 (- ?x1556 (* ?x1939 36524))))
 (let ((?x1616 (mod ?x443 1461)))
 (let ((?x3467 (div ?x1616 365)))
 (let ((?x1464 (ite (<= 4 ?x3467) 3 ?x3467)))
 (let ((?x1642 (+ (+ (* (div ?x3907 146097) 400) (* ?x1939 100)) (* (div ?x443 1461) 4))))
 (let ((?x2795 (+ (+ ?x1642 ?x1464) 1)))
 (let (($x2222 (or (and (= (mod ?x2795 4) 0) (and (distinct (mod ?x2795 100) 0) true)) (= (mod ?x2795 400) 0))))
 (let ((?x1506 (ite $x2222 31 31)))
 (let ((?x867 (- ?x1616 (* ?x1464 365))))
 (let (($x3043 (>= ?x867 ?x1506)))
 (let ((?x2289 (ite $x2222 60 59)))
 (let (($x2710 (>= ?x867 ?x2289)))
 (let ((?x1097 (ite $x2222 91 90)))
 (let (($x2998 (>= ?x867 ?x1097)))
 (let ((?x2439 (ite $x2222 121 120)))
 (let (($x2939 (>= ?x867 ?x2439)))
 (let ((?x2933 (ite $x2939 5 (ite $x2998 4 (ite $x2710 3 (ite $x3043 2 1))))))
 (let ((?x1974 (ite $x2222 152 151)))
 (let (($x2990 (>= ?x867 ?x1974)))
 (let ((?x1942 (ite $x2222 182 181)))
 (let (($x1959 (>= ?x867 ?x1942)))
 (let ((?x2793 (ite $x2222 213 212)))
 (let (($x2942 (>= ?x867 ?x2793)))
 (let ((?x2001 (ite $x2222 244 243)))
 (let (($x2945 (>= ?x867 ?x2001)))
 (let ((?x247 (ite $x2945 9 (ite $x2942 8 (ite $x1959 7 (ite $x2990 6 ?x2933))))))
 (let ((?x3004 (ite $x2222 274 273)))
 (let (($x2921 (>= ?x867 ?x3004)))
 (let ((?x3052 (ite $x2222 305 304)))
 (let (($x2146 (>= ?x867 ?x3052)))
 (let ((?x2941 (ite $x2222 335 334)))
 (let (($x2246 (>= ?x867 ?x2941)))
 (let (($x1067 (= 0 0)))
 (let ((?x1521 (ite $x1067 ?x3400 (ite $x2246 12 (ite $x2146 11 (ite $x2921 10 ?x247))))))
 (= y_plus_month ?x1521)))))))))))))))))))))))))))))))))))))))))))))))))))))))))))))))))))))))))))))))))))))))))))))))))))))
(assert
 (let ((?x2251 (+ y_epoch 730179)))
 (let ((?x1816 (mod ?x2251 146097)))
 (let ((?x2894 (div ?x1816 36524)))
 (let ((?x1985 (ite (<= 4 ?x2894) 3 ?x2894)))
 (let ((?x618 (- ?x1816 (* ?x1985 36524))))
 (let ((?x345 (mod ?x618 1461)))
 (let ((?x1691 (div ?x345 365)))
 (let ((?x2488 (ite (<= 4 ?x1691) 3 ?x1691)))
 (let ((?x3673 (+ (+ (* (div ?x2251 146097) 400) (* ?x1985 100)) (* (div ?x618 1461) 4))))
 (let ((?x943 (+ (+ ?x3673 ?x2488) 1)))
 (let (($x1279 (or (and (= (mod ?x943 4) 0) (and (distinct (mod ?x943 100) 0) true)) (= (mod ?x943 400) 0))))
 (let ((?x2268 (- ?x345 (* ?x2488 365))))
 (let ((?x4027 (ite $x1279 31 31)))
 (let (($x4505 (>= ?x2268 ?x4027)))
 (let ((?x1822 (ite $x4505 (+ (- ?x2268 ?x4027) 1) (+ (- ?x2268 (ite $x1279 0 0)) 1))))
 (let ((?x4431 (ite $x1279 60 59)))
 (let (($x865 (>= ?x2268 ?x4431)))
 (let ((?x3479 (ite $x1279 91 90)))
 (let (($x3473 (>= ?x2268 ?x3479)))
 (let ((?x2682 (ite $x3473 (+ (- ?x2268 ?x3479) 1) (ite $x865 (+ (- ?x2268 ?x4431) 1) ?x1822))))
 (let ((?x3498 (ite $x1279 121 120)))
 (let (($x3484 (>= ?x2268 ?x3498)))
 (let ((?x4033 (ite $x1279 152 151)))
 (let (($x2166 (>= ?x2268 ?x4033)))
 (let ((?x2462 (ite $x2166 (+ (- ?x2268 ?x4033) 1) (ite $x3484 (+ (- ?x2268 ?x3498) 1) ?x2682))))
 (let ((?x340 (ite $x1279 182 181)))
 (let (($x4006 (>= ?x2268 ?x340)))
 (let ((?x2359 (ite $x1279 213 212)))
 (let (($x4008 (>= ?x2268 ?x2359)))
 (let ((?x4474 (ite $x4008 (+ (- ?x2268 ?x2359) 1) (ite $x4006 (+ (- ?x2268 ?x340) 1) ?x2462))))
 (let ((?x2361 (ite $x1279 244 243)))
 (let (($x3471 (>= ?x2268 ?x2361)))
 (let ((?x394 (ite $x1279 274 273)))
 (let (($x2056 (>= ?x2268 ?x394)))
 (let ((?x3459 (ite $x2056 (+ (- ?x2268 ?x394) 1) (ite $x3471 (+ (- ?x2268 ?x2361) 1) ?x4474))))
 (let ((?x4473 (ite $x1279 305 304)))
 (let (($x4478 (>= ?x2268 ?x4473)))
 (let ((?x4058 (ite $x1279 335 334)))
 (let (($x4571 (>= ?x2268 ?x4058)))
 (let ((?x4824 (ite $x4571 (+ (- ?x2268 ?x4058) 1) (ite $x4478 (+ (- ?x2268 ?x4473) 1) ?x3459))))
 (let ((?x821 (+ (* 0 12) 1)))
 (let ((?x3469 (ite $x3484 5 (ite $x3473 4 (ite $x865 3 (ite $x4505 2 1))))))
 (let ((?x4064 (ite $x3471 9 (ite $x4008 8 (ite $x4006 7 (ite $x2166 6 ?x3469))))))
 (let ((?x3497 (ite $x4571 12 (ite $x4478 11 (ite $x2056 10 ?x4064)))))
 (let ((?x3598 (+ ?x3497 ?x821)))
 (let ((?x492 (- ?x3598 1)))
 (let ((?x3400 (+ (mod ?x492 12) 1)))
 (let ((?x3466 (ite (or (= ?x3400 4) (= ?x3400 6) (= ?x3400 9) (= ?x3400 11)) 30 31)))
 (let (($x3777 (and (= (mod (+ ?x943 (+ 0 (div ?x492 12))) 4) 0) (and (distinct (mod (+ ?x943 (+ 0 (div ?x492 12))) 100) 0) true))))
 (let (($x4085 (or $x3777 (= (mod (+ ?x943 (+ 0 (div ?x492 12))) 400) 0))))
 (let ((?x4241 (ite (= ?x3400 2) (ite $x4085 29 28) ?x3466)))
 (let ((?x1477 (ite (> 1 ?x4824) 1 (ite (> ?x4824 ?x4241) ?x4241 ?x4824))))
 (let ((?x3650 (ite (> 1 ?x1477) 1 (ite (> ?x1477 ?x4241) ?x4241 ?x1477))))
 (let ((?x2221 (ite (= 2 ?x3400) (ite $x4085 31 31) (ite (= 1 ?x3400) (ite $x4085 0 0) 0))))
 (let ((?x3770 (ite (= 4 ?x3400) (ite $x4085 91 90) (ite (= 3 ?x3400) (ite $x4085 60 59) ?x2221))))
 (let ((?x3123 (ite (= 6 ?x3400) (ite $x4085 152 151) (ite (= 5 ?x3400) (ite $x4085 121 120) ?x3770))))
 (let ((?x4218 (ite (= 8 ?x3400) (ite $x4085 213 212) (ite (= 7 ?x3400) (ite $x4085 182 181) ?x3123))))
 (let ((?x4545 (ite (= 10 ?x3400) (ite $x4085 274 273) (ite (= 9 ?x3400) (ite $x4085 244 243) ?x4218))))
 (let ((?x2007 (ite (= 12 ?x3400) (ite $x4085 335 334) (ite (= 11 ?x3400) (ite $x4085 305 304) ?x4545))))
 (let ((?x1109 (+ (* 365 (- (+ ?x943 (+ 0 (div ?x492 12))) 1)) (div (- (+ ?x943 (+ 0 (div ?x492 12))) 1) 4))))
 (let ((?x1537 (+ (- ?x1109 (div (- (+ ?x943 (+ 0 (div ?x492 12))) 1) 100)) (div (- (+ ?x943 (+ 0 (div ?x492 12))) 1) 400))))
 (let ((?x3907 (+ (+ (- (+ (+ ?x1537 ?x2007) (- ?x3650 1)) 730179) 0) 730179)))
 (let ((?x1556 (mod ?x3907 146097)))
 (let ((?x3853 (div ?x1556 36524)))
 (let ((?x1939 (ite (<= 4 ?x3853) 3 ?x3853)))
 (let ((?x443 (- ?x1556 (* ?x1939 36524))))
 (let ((?x1616 (mod ?x443 1461)))
 (let ((?x3467 (div ?x1616 365)))
 (let ((?x1464 (ite (<= 4 ?x3467) 3 ?x3467)))
 (let ((?x1642 (+ (+ (* (div ?x3907 146097) 400) (* ?x1939 100)) (* (div ?x443 1461) 4))))
 (let ((?x2795 (+ (+ ?x1642 ?x1464) 1)))
 (let (($x2222 (or (and (= (mod ?x2795 4) 0) (and (distinct (mod ?x2795 100) 0) true)) (= (mod ?x2795 400) 0))))
 (let ((?x867 (- ?x1616 (* ?x1464 365))))
 (let ((?x1506 (ite $x2222 31 31)))
 (let (($x3043 (>= ?x867 ?x1506)))
 (let ((?x2995 (ite $x3043 (+ (- ?x867 ?x1506) 1) (+ (- ?x867 (ite $x2222 0 0)) 1))))
 (let ((?x2289 (ite $x2222 60 59)))
 (let (($x2710 (>= ?x867 ?x2289)))
 (let ((?x1097 (ite $x2222 91 90)))
 (let (($x2998 (>= ?x867 ?x1097)))
 (let ((?x2456 (ite $x2998 (+ (- ?x867 ?x1097) 1) (ite $x2710 (+ (- ?x867 ?x2289) 1) ?x2995))))
 (let ((?x2439 (ite $x2222 121 120)))
 (let (($x2939 (>= ?x867 ?x2439)))
 (let ((?x1974 (ite $x2222 152 151)))
 (let (($x2990 (>= ?x867 ?x1974)))
 (let ((?x2830 (ite $x2990 (+ (- ?x867 ?x1974) 1) (ite $x2939 (+ (- ?x867 ?x2439) 1) ?x2456))))
 (let ((?x1942 (ite $x2222 182 181)))
 (let (($x1959 (>= ?x867 ?x1942)))
 (let ((?x2793 (ite $x2222 213 212)))
 (let (($x2942 (>= ?x867 ?x2793)))
 (let ((?x2721 (ite $x2942 (+ (- ?x867 ?x2793) 1) (ite $x1959 (+ (- ?x867 ?x1942) 1) ?x2830))))
 (let ((?x2001 (ite $x2222 244 243)))
 (let (($x2945 (>= ?x867 ?x2001)))
 (let ((?x3004 (ite $x2222 274 273)))
 (let (($x2921 (>= ?x867 ?x3004)))
 (let ((?x2944 (ite $x2921 (+ (- ?x867 ?x3004) 1) (ite $x2945 (+ (- ?x867 ?x2001) 1) ?x2721))))
 (let ((?x3052 (ite $x2222 305 304)))
 (let (($x2146 (>= ?x867 ?x3052)))
 (let ((?x2941 (ite $x2222 335 334)))
 (let (($x2246 (>= ?x867 ?x2941)))
 (let ((?x2241 (ite $x2246 (+ (- ?x867 ?x2941) 1) (ite $x2146 (+ (- ?x867 ?x3052) 1) ?x2944))))
 (let (($x1067 (= 0 0)))
 (let ((?x488 (ite $x1067 ?x3650 ?x2241)))
 (= y_plus_day ?x488)))))))))))))))))))))))))))))))))))))))))))))))))))))))))))))))))))))))))))))))))))))))))))))))))))))))))
(assert
 (= y_plus_epoch 6938))
(assert
 (= x_epoch 7275))
(assert
 (= y_epoch 6910))
(assert
 (= x_plus_epoch 7304))
(assert
 (= y_plus_epoch 6938))
(check-sat)
